500
750
525
524
523
520
520
518
518
518
517
517
517
516
514
513
513
513
512
511
510
506
505
504
504
502
501
500
499
498
497
496
495
492
492
491
490
490
488
487
486
485
485
484
484
483
480
480
479
478
478
477
477
477
475
475
475
474
473
473
470
469
469
468
468
466
465
464
464
463
462
462
459
458
457
457
456
456
455
454
454
453
453
453
452
451
451
451
449
447
445
445
444
444
444
443
442
442
442
442
442
441
440
439
437
437
436
435
434
432
430
429
429
429
428
425
425
425
423
422
422
422
420
418
416
414
413
413
413
412
412
412
409
408
408
408
407
406
406
405
404
404
404
404
402
401
401
401
400
400
399
398
396
396
396
395
394
394
393
392
391
391
390
389
389
389
387
383
381
379
379
377
376
375
371
370
368
367
367
365
365
362
361
361
360
356
356
355
355
354
354
354
353
352
350
349
348
347
346
346
342
342
341
341
338
337
337
332
330
329
329
329
329
328
328
328
328
326
324
324
322
318
317
317
316
315
314
314
312
312
311
310
309
306
305
302
302
301
301
300
299
298
297
297
297
297
296
296
296
296
295
294
294
294
294
293
292
290
290
289
287
286
286
286
283
283
281
280
278
278
278
277
277
276
274
274
273
272
271
271
270
269
269
268
268
268
268
266
265
264
263
263
262
260
259
258
257
256
256
255
252
252
249
249
248
246
246
245
242
241
239
239
239
237
235
235
234
232
232
230
227
227
226
225
225
225
225
223
222
221
217
217
213
213
213
213
211
210
210
210
208
207
207
206
205
205
205
202
202
201
200
199
197
197
197
195
195
195
194
193
192
192
188
188
187
185
183
182
182
181
181
180
180
179
179
178
177
177
177
175
175
175
174
173
173
171
168
168
168
167
167
166
166
166
165
162
161
160
160
159
157
155
155
154
153
153
153
150
146
142
141
141
141
141
140
140
140
140
139
137
136
136
133
133
130
130
130
130
130
129
129
128
127
127
127
127
126
126
126
124
124
123
122
122
120
117
116
116
116
115
115
113
113
111
110
110
109
107
106
105
105
105
104
104
103
101
101
100
100
100
99
98
97
96
96
95
95
94
93
93
92
91
90
90
88
87
86
86
85
84
84
84
84
83
82
82
79
75
75
75
75
75
